15
542484681 -48 -7
461095064 -78 43
17612842 75 -70
814788938 11 -19
172738010 -64 -34
298365888 68 -34
762947503 -94 77
694431388 -85 -99
599310492 -44 -69
58746131 79 10
124736496 -89 84
237056453 -57 92
397202508 -84 19
115528952 -17 -29
873879011 -81 76